nN = 7;
nR = 15;
nH = 1;

a = [[6, 8, 24, 14, 13, 7, 10, 12, 20, 9, 21, 14, 7, 11, 8], [23, 12, 17, 23, 24, 20, 20, 20, 23, 19, 15, 23, 9, 22, 18], [23, 18, 16, 7, 22, 22, 11, 21, 12, 13, 8, 24, 9, 9, 15], [22, 13, 8, 10, 21, 25, 12, 14, 16, 24, 16, 10, 11, 14, 20], [25, 14, 9, 16, 24, 7, 21, 5, 13, 15, 22, 10, 22, 9, 19], [10, 22, 22, 24, 15, 10, 17, 17, 15, 6, 9, 5, 24, 7, 24], [22, 22, 14, 8, 19, 22, 18, 20, 23, 20, 15, 6, 25, 17, 25]];
c = [[[0, 0, 0, 0, 0, 0, 0, 0, 0, 0, 0, 0, 0, 0, 0], [43, 47, 35, 35, 50, 46, 49, 39, 49, 44, 43, 46, 48, 48, 32], [50, 48, 45, 36, 34, 47, 48, 35, 42, 37, 39, 48, 38, 30, 43], [43, 43, 38, 46, 36, 42, 34, 40, 44, 43, 31, 32, 42, 36, 35], [39, 43, 41, 37, 46, 49, 46, 43, 41, 41, 46, 48, 48, 40, 44], [50, 45, 38, 43, 39, 38, 32, 48, 32, 33, 31, 31, 43, 32, 43], [35, 49, 42, 39, 38, 33, 38, 50, 42, 37, 31, 43, 42, 33, 38]], [[0, 0, 0, 0, 0, 0, 0, 0, 0, 0, 0, 0, 0, 0, 0], [0, 0, 0, 0, 0, 0, 0, 0, 0, 0, 0, 0, 0, 0, 0], [39, 39, 42, 42, 50, 40, 43, 35, 42, 47, 30, 43, 42, 37, 30], [37, 34, 42, 45, 43, 35, 31, 33, 32, 42, 47, 44, 43, 48, 33], [33, 48, 37, 48, 37, 44, 41, 32, 45, 44, 36, 46, 32, 36, 34], [46, 37, 39, 37, 38, 42, 43, 31, 39, 32, 35, 42, 40, 50, 36], [44, 47, 45, 47, 42, 39, 42, 46, 50, 34, 39, 40, 30, 49, 47]], [[0, 0, 0, 0, 0, 0, 0, 0, 0, 0, 0, 0, 0, 0, 0], [0, 0, 0, 0, 0, 0, 0, 0, 0, 0, 0, 0, 0, 0, 0], [0, 0, 0, 0, 0, 0, 0, 0, 0, 0, 0, 0, 0, 0, 0], [47, 46, 46, 37, 39, 35, 34, 44, 41, 32, 49, 30, 40, 32, 49], [43, 32, 39, 48, 41, 45, 41, 39, 35, 38, 48, 43, 45, 30, 33], [36, 37, 44, 50, 31, 49, 46, 32, 36, 45, 45, 48, 40, 44, 50], [34, 31, 33, 44, 42, 40, 50, 44, 34, 38, 46, 42, 37, 33, 30]], [[0, 0, 0, 0, 0, 0, 0, 0, 0, 0, 0, 0, 0, 0, 0], [0, 0, 0, 0, 0, 0, 0, 0, 0, 0, 0, 0, 0, 0, 0], [0, 0, 0, 0, 0, 0, 0, 0, 0, 0, 0, 0, 0, 0, 0], [0, 0, 0, 0, 0, 0, 0, 0, 0, 0, 0, 0, 0, 0, 0], [39, 47, 35, 31, 45, 42, 45, 49, 37, 31, 41, 47, 31, 30, 40], [48, 50, 33, 36, 49, 36, 47, 40, 48, 44, 50, 33, 41, 46, 30], [40, 34, 46, 41, 45, 34, 32, 32, 42, 32, 46, 47, 40, 50, 47]], [[0, 0, 0, 0, 0, 0, 0, 0, 0, 0, 0, 0, 0, 0, 0], [0, 0, 0, 0, 0, 0, 0, 0, 0, 0, 0, 0, 0, 0, 0], [0, 0, 0, 0, 0, 0, 0, 0, 0, 0, 0, 0, 0, 0, 0], [0, 0, 0, 0, 0, 0, 0, 0, 0, 0, 0, 0, 0, 0, 0], [0, 0, 0, 0, 0, 0, 0, 0, 0, 0, 0, 0, 0, 0, 0], [37, 43, 46, 39, 38, 39, 39, 30, 38, 40, 33, 38, 30, 46, 45], [38, 50, 45, 33, 38, 44, 50, 50, 46, 45, 31, 38, 38, 45, 44]], [[0, 0, 0, 0, 0, 0, 0, 0, 0, 0, 0, 0, 0, 0, 0], [0, 0, 0, 0, 0, 0, 0, 0, 0, 0, 0, 0, 0, 0, 0], [0, 0, 0, 0, 0, 0, 0, 0, 0, 0, 0, 0, 0, 0, 0], [0, 0, 0, 0, 0, 0, 0, 0, 0, 0, 0, 0, 0, 0, 0], [0, 0, 0, 0, 0, 0, 0, 0, 0, 0, 0, 0, 0, 0, 0], [0, 0, 0, 0, 0, 0, 0, 0, 0, 0, 0, 0, 0, 0, 0], [30, 32, 39, 34, 49, 36, 47, 49, 41, 35, 32, 38, 38, 43, 35]], [[0, 0, 0, 0, 0, 0, 0, 0, 0, 0, 0, 0, 0, 0, 0], [0, 0, 0, 0, 0, 0, 0, 0, 0, 0, 0, 0, 0, 0, 0], [0, 0, 0, 0, 0, 0, 0, 0, 0, 0, 0, 0, 0, 0, 0], [0, 0, 0, 0, 0, 0, 0, 0, 0, 0, 0, 0, 0, 0, 0], [0, 0, 0, 0, 0, 0, 0, 0, 0, 0, 0, 0, 0, 0, 0], [0, 0, 0, 0, 0, 0, 0, 0, 0, 0, 0, 0, 0, 0, 0], [0, 0, 0, 0, 0, 0, 0, 0, 0, 0, 0, 0, 0, 0, 0]]];
Q = [[19], [28], [23], [26], [29], [25], [26]];

q = [[[12], [25], [6], [15], [5], [12], [17], [5], [9], [11], [10], [5], [11], [16], [7]], [[19], [24], [25], [5], [6], [24], [17], [17], [11], [11], [23], [8], [20], [24], [9]], [[8], [17], [11], [21], [9], [18], [9], [20], [18], [10], [15], [8], [5], [11], [13]], [[17], [8], [20], [11], [20], [16], [6], [22], [9], [18], [15], [5], [16], [19], [18]], [[20], [9], [19], [17], [14], [22], [18], [11], [20], [25], [16], [9], [24], [5], [21]], [[20], [19], [17], [18], [20], [10], [5], [6], [7], [20], [21], [18], [16], [10], [9]], [[18], [6], [22], [18], [19], [22], [15], [6], [14], [18], [10], [20], [9], [22], [6]]];
p = [0.97, 0.95, 0.61, 0.33, 0.75, 0.31, 0.65, 0.88, 0.7, 0.28, 0.58, 0.68, 0.38, 0.03, 0.89];
